p wcnf 120 1400
3 -117 -119 0
9 -113 115 0
4 -109 111 0
4 -108 115 0
4 -107 -120 0
9 -104 -120 0
5 -104 -107 0
10 -104 105 0
4 -103 -118 0
3 -102 -120 0
1 -102 -106 0
7 -100 -111 0
6 -100 -104 0
8 -100 109 0
8 -99 -117 0
5 -99 -109 0
9 -99 -102 0
8 -98 -104 0
6 -98 -101 0
2 -98 105 0
8 -98 117 0
9 -97 -114 0
6 -97 -113 0
5 -97 -98 0
8 -97 103 0
5 -97 119 0
9 -96 -105 0
10 -96 98 0
9 -94 -114 0
1 -93 -102 0
3 -93 -95 0
2 -93 104 0
10 -93 114 0
6 -92 101 0
6 -92 103 0
4 -91 -95 0
5 -91 113 0
1 -90 -111 0
4 -90 -107 0
7 -90 -99 0
3 -89 -105 0
4 -89 95 0
5 -89 100 0
8 -89 104 0
2 -88 -96 0
2 -88 89 0
3 -88 94 0
1 -87 -96 0
10 -87 102 0
8 -86 -114 0
3 -86 -87 0
8 -86 100 0
7 -86 112 0
8 -85 -114 0
3 -85 -86 0
5 -85 86 0
3 -85 105 0
2 -84 -114 0
5 -84 108 0
2 -84 120 0
2 -83 -106 0
7 -83 93 0
4 -82 -111 0
2 -82 -105 0
3 -82 87 0
9 -82 110 0
5 -82 117 0
7 -81 -120 0
9 -81 -93 0
7 -81 -87 0
4 -81 82 0
2 -81 115 0
1 -80 -101 0
8 -80 -100 0
8 -80 -93 0
3 -80 91 0
9 -80 99 0
1 -80 109 0
3 -80 111 0
9 -79 -110 0
8 -79 -104 0
5 -79 100 0
7 -78 -95 0
5 -78 -89 0
3 -78 80 0
8 -78 96 0
10 -77 -111 0
5 -77 -106 0
9 -77 -101 0
5 -77 -90 0
6 -77 78 0
1 -76 -119 0
2 -76 -112 0
9 -76 -106 0
2 -76 88 0
5 -76 101 0
8 -76 120 0
6 -75 -117 0
2 -75 86 0
6 -75 91 0
3 -74 -112 0
5 -74 -80 0
7 -74 91 0
3 -74 99 0
3 -74 112 0
5 -74 120 0
5 -73 -119 0
2 -73 -103 0
5 -73 -83 0
7 -73 -81 0
2 -73 78 0
3 -73 83 0
2 -73 117 0
7 -72 -119 0
8 -72 -92 0
3 -72 82 0
6 -72 101 0
8 -72 115 0
7 -71 -107 0
5 -71 -96 0
3 -71 -73 0
3 -71 96 0
5 -70 -89 0
4 -70 105 0
2 -69 -112 0
6 -69 78 0
8 -69 107 0
9 -68 -84 0
2 -68 -79 0
9 -68 -78 0
5 -68 70 0
4 -68 83 0
4 -68 85 0
2 -67 -109 0
6 -67 -99 0
6 -67 -80 0
6 -67 82 0
10 -66 -107 0
7 -66 116 0
10 -65 -118 0
7 -65 -111 0
8 -65 -107 0
3 -65 -105 0
7 -65 -94 0
5 -65 -70 0
1 -65 67 0
10 -65 82 0
10 -65 89 0
8 -65 114 0
6 -64 -102 0
5 -64 -97 0
1 -64 -94 0
9 -64 -91 0
9 -64 86 0
5 -64 111 0
10 -64 113 0
6 -64 118 0
3 -63 -114 0
8 -63 -100 0
7 -63 -92 0
1 -63 -91 0
3 -63 -81 0
9 -63 -73 0
4 -63 85 0
3 -63 97 0
6 -63 109 0
9 -63 113 0
8 -62 -119 0
6 -62 -111 0
6 -62 -96 0
8 -62 -90 0
2 -62 -70 0
3 -62 82 0
1 -62 100 0
9 -62 102 0
7 -62 118 0
2 -61 -97 0
8 -61 -91 0
7 -61 -87 0
9 -61 62 0
5 -61 106 0
2 -60 -111 0
9 -60 -93 0
4 -60 -68 0
2 -60 119 0
4 -59 -102 0
3 -59 -95 0
6 -59 -82 0
5 -59 60 0
1 -59 63 0
3 -59 81 0
6 -59 105 0
3 -59 114 0
2 -58 -119 0
9 -58 -116 0
6 -58 -110 0
7 -58 -95 0
8 -58 -90 0
4 -58 106 0
2 -57 -119 0
3 -57 -103 0
2 -57 -93 0
4 -57 -90 0
5 -57 -89 0
2 -57 -83 0
3 -57 -69 0
3 -57 -65 0
3 -57 75 0
1 -57 119 0
9 -56 -116 0
2 -56 100 0
5 -56 113 0
2 -56 114 0
10 -55 -88 0
8 -55 -83 0
2 -55 -59 0
3 -55 66 0
10 -55 87 0
7 -55 101 0
8 -55 114 0
10 -55 120 0
9 -54 -106 0
4 -54 -79 0
3 -54 -75 0
1 -54 -74 0
3 -54 -67 0
8 -54 -63 0
7 -54 -55 0
9 -54 67 0
1 -54 104 0
8 -53 -107 0
2 -53 -92 0
2 -53 -79 0
2 -53 81 0
7 -53 99 0
3 -53 104 0
4 -52 -98 0
8 -52 -92 0
5 -52 -87 0
4 -52 -85 0
8 -52 -60 0
6 -52 55 0
8 -52 100 0
8 -52 103 0
6 -52 118 0
6 -51 -70 0
9 -51 56 0
8 -51 58 0
6 -50 -96 0
7 -50 -69 0
6 -50 -68 0
5 -50 -51 0
6 -50 76 0
9 -49 -113 0
8 -49 -66 0
6 -49 52 0
1 -49 55 0
5 -49 75 0
3 -49 90 0
9 -48 -115 0
6 -48 -100 0
1 -48 -99 0
2 -48 -91 0
7 -48 -89 0
3 -48 -78 0
7 -48 -70 0
9 -48 -61 0
5 -48 62 0
6 -48 77 0
4 -48 82 0
8 -48 100 0
3 -48 107 0
9 -48 110 0
6 -47 -119 0
2 -47 -75 0
5 -47 -72 0
2 -47 -60 0
10 -47 58 0
3 -47 76 0
7 -47 83 0
7 -46 -105 0
8 -46 -58 0
2 -46 55 0
2 -46 120 0
6 -45 -107 0
9 -45 49 0
7 -45 93 0
7 -45 102 0
4 -45 115 0
9 -44 -120 0
6 -44 -88 0
9 -44 -75 0
10 -44 76 0
7 -44 116 0
6 -43 -112 0
2 -43 -97 0
4 -43 95 0
5 -43 112 0
7 -42 -96 0
9 -42 -87 0
9 -42 -84 0
5 -42 -68 0
2 -42 47 0
8 -42 52 0
1 -42 103 0
3 -42 106 0
3 -42 115 0
3 -41 -93 0
3 -41 -79 0
5 -41 -71 0
8 -41 47 0
9 -41 53 0
3 -41 91 0
9 -40 -120 0
10 -40 -85 0
8 -40 -48 0
8 -40 82 0
7 -40 109 0
5 -40 116 0
2 -39 -119 0
6 -39 -108 0
10 -39 -104 0
1 -39 -64 0
6 -39 -62 0
7 -39 -40 0
6 -39 89 0
7 -39 99 0
10 -38 -68 0
1 -38 -58 0
4 -38 -40 0
9 -38 64 0
9 -38 73 0
8 -38 106 0
1 -38 107 0
7 -37 -120 0
8 -37 -94 0
3 -37 -89 0
9 -37 -85 0
10 -37 -69 0
5 -37 -59 0
3 -37 -57 0
8 -37 -40 0
4 -37 44 0
5 -37 82 0
7 -37 88 0
4 -37 102 0
3 -37 103 0
5 -37 116 0
10 -37 119 0
7 -36 -103 0
7 -36 -79 0
6 -36 79 0
6 -36 85 0
7 -35 -86 0
2 -35 -60 0
3 -35 -58 0
3 -35 -44 0
8 -35 64 0
3 -35 66 0
3 -35 86 0
2 -35 89 0
2 -34 -104 0
1 -34 -94 0
9 -34 -93 0
2 -34 -76 0
7 -34 -71 0
7 -34 -69 0
4 -34 52 0
6 -34 59 0
7 -34 60 0
8 -34 86 0
8 -34 87 0
5 -34 120 0
2 -33 -119 0
3 -33 -94 0
2 -33 -89 0
5 -33 -60 0
5 -33 -59 0
7 -33 -58 0
5 -33 -43 0
2 -33 41 0
3 -33 69 0
10 -33 70 0
7 -33 73 0
9 -33 104 0
2 -33 106 0
9 -33 108 0
2 -33 120 0
9 -32 -112 0
2 -32 -98 0
3 -32 -88 0
1 -32 -71 0
2 -32 -62 0
4 -32 -57 0
10 -32 -46 0
3 -32 -33 0
10 -32 42 0
7 -32 49 0
6 -32 54 0
6 -32 66 0
4 -32 73 0
5 -31 -87 0
4 -31 -71 0
9 -31 -64 0
6 -31 -63 0
7 -31 -52 0
1 -31 -35 0
10 -31 34 0
2 -31 50 0
7 -31 69 0
4 -31 76 0
2 -30 -112 0
9 -30 -104 0
4 -30 -88 0
8 -30 -75 0
8 -30 -54 0
5 -30 -32 0
7 -30 33 0
9 -30 54 0
4 -30 59 0
8 -30 89 0
2 -30 102 0
4 -30 112 0
10 -29 -101 0
5 -29 -100 0
4 -29 -88 0
3 -29 38 0
5 -29 46 0
1 -29 50 0
8 -29 51 0
10 -29 89 0
4 -28 -106 0
3 -28 -96 0
4 -28 -73 0
3 -28 -60 0
8 -28 -59 0
10 -28 -36 0
3 -28 32 0
8 -28 44 0
1 -28 54 0
9 -28 67 0
2 -28 76 0
3 -27 -107 0
9 -27 -102 0
5 -27 -99 0
1 -27 -47 0
7 -27 -30 0
9 -27 30 0
8 -27 32 0
6 -27 45 0
2 -27 59 0
6 -27 102 0
7 -27 110 0
6 -27 118 0
6 -26 -119 0
2 -26 -113 0
8 -26 -51 0
8 -26 -36 0
6 -26 -34 0
8 -26 67 0
6 -26 77 0
5 -26 105 0
3 -26 114 0
9 -25 -95 0
8 -25 -71 0
5 -25 -45 0
7 -25 -44 0
8 -25 -39 0
7 -25 -38 0
4 -25 38 0
8 -25 53 0
6 -25 57 0
6 -25 89 0
10 -25 103 0
5 -24 -87 0
10 -24 -77 0
1 -24 -52 0
2 -24 -50 0
8 -24 -40 0
8 -24 -32 0
7 -24 -31 0
10 -24 34 0
4 -24 81 0
4 -24 83 0
5 -23 -85 0
8 -23 -41 0
5 -23 -34 0
3 -23 26 0
6 -23 35 0
1 -23 45 0
2 -23 88 0
3 -23 101 0
6 -22 -120 0
4 -22 -98 0
1 -22 -95 0
4 -22 -69 0
8 -22 62 0
7 -22 73 0
2 -22 92 0
5 -22 98 0
1 -22 113 0
9 -21 -87 0
1 -21 -60 0
6 -21 -57 0
9 -21 -50 0
5 -21 -47 0
5 -21 28 0
9 -21 99 0
7 -21 117 0
4 -20 -109 0
7 -20 -91 0
4 -20 -86 0
3 -20 -65 0
9 -20 -64 0
7 -20 -63 0
7 -20 -58 0
8 -20 -31 0
3 -20 25 0
10 -20 42 0
4 -20 49 0
3 -20 91 0
2 -20 114 0
6 -19 -82 0
7 -19 -52 0
4 -19 -33 0
6 -19 20 0
1 -19 30 0
2 -19 72 0
3 -19 88 0
2 -19 113 0
6 -18 -62 0
3 -18 -51 0
1 -18 -45 0
6 -18 -21 0
8 -18 45 0
10 -18 58 0
2 -18 96 0
4 -17 -107 0
9 -17 -95 0
7 -17 -67 0
6 -17 -63 0
6 -17 -56 0
1 -17 -29 0
9 -17 -27 0
5 -17 29 0
7 -17 45 0
6 -17 74 0
3 -17 92 0
9 -17 115 0
6 -16 -78 0
6 -16 -73 0
2 -16 -20 0
6 -16 -19 0
2 -16 23 0
8 -16 52 0
10 -16 69 0
7 -16 83 0
9 -16 98 0
2 -16 112 0
9 -16 119 0
1 -15 -107 0
6 -15 -96 0
2 -15 -67 0
2 -15 -47 0
3 -15 -33 0
9 -15 -31 0
1 -15 -23 0
3 -15 19 0
2 -15 20 0
9 -15 67 0
9 -15 81 0
8 -15 94 0
4 -15 98 0
9 -14 -42 0
6 -14 -36 0
8 -14 -33 0
7 -14 -23 0
2 -14 -16 0
1 -14 23 0
6 -14 24 0
7 -14 42 0
6 -13 -96 0
7 -13 -69 0
3 -13 -58 0
7 -13 -48 0
5 -13 25 0
2 -13 50 0
4 -13 67 0
4 -13 71 0
3 -13 81 0
3 -12 -111 0
4 -12 -103 0
8 -12 -91 0
3 -12 -82 0
4 -12 -73 0
10 -12 -68 0
2 -12 22 0
4 -12 30 0
3 -12 59 0
4 -12 79 0
3 -12 88 0
2 -12 98 0
2 -12 120 0
7 -11 -112 0
2 -11 -92 0
7 -11 -59 0
5 -11 -56 0
8 -11 -50 0
8 -11 -41 0
6 -11 -17 0
3 -11 -16 0
4 -11 25 0
2 -11 37 0
9 -11 70 0
6 -10 -113 0
8 -10 -95 0
4 -10 -90 0
8 -10 -56 0
2 -10 -32 0
7 -10 30 0
10 -10 64 0
3 -10 106 0
10 -10 110 0
8 -10 119 0
6 -9 -113 0
4 -9 -87 0
8 -9 -79 0
7 -9 -74 0
7 -9 -65 0
10 -9 -44 0
10 -9 67 0
10 -9 79 0
2 -8 -96 0
1 -8 -75 0
6 -8 -66 0
3 -8 -43 0
7 -8 34 0
2 -8 36 0
9 -8 100 0
5 -8 120 0
6 -7 -100 0
3 -7 -78 0
9 -7 -65 0
7 -7 -21 0
2 -7 -11 0
5 -7 81 0
5 -7 95 0
5 -7 101 0
3 -6 -101 0
6 -6 -96 0
2 -6 -86 0
2 -6 -18 0
9 -6 10 0
2 -6 11 0
9 -6 37 0
4 -6 44 0
4 -6 81 0
7 -5 -66 0
2 -5 -63 0
2 -5 -46 0
7 -5 -36 0
1 -5 -32 0
1 -5 6 0
8 -5 10 0
2 -5 14 0
7 -5 104 0
10 -5 118 0
8 -4 -65 0
7 -4 -58 0
9 -4 -50 0
3 -4 -46 0
4 -4 -33 0
2 -4 -28 0
2 -4 9 0
10 -4 58 0
3 -4 71 0
6 -4 81 0
5 -4 82 0
7 -3 -109 0
7 -3 -101 0
1 -3 -70 0
8 -3 -49 0
9 -3 -42 0
9 -3 -15 0
8 -3 -5 0
8 -3 24 0
3 -3 33 0
3 -3 45 0
5 -3 52 0
4 -3 54 0
3 -3 74 0
1 -3 85 0
4 -3 95 0
4 -3 99 0
8 -2 -104 0
5 -2 -98 0
10 -2 -36 0
8 -2 -12 0
3 -2 -5 0
7 -2 48 0
7 -2 64 0
5 -2 87 0
10 -2 102 0
8 -2 104 0
6 -1 -105 0
9 -1 -103 0
9 -1 -85 0
2 -1 -68 0
4 -1 -26 0
6 -1 -20 0
8 -1 3 0
5 -1 11 0
4 -1 15 0
7 -1 20 0
3 -1 67 0
2 -1 75 0
5 -1 90 0
5 -1 91 0
4 -1 94 0
8 -1 96 0
8 -1 111 0
6 -1 119 0
9 1 -106 0
2 1 -104 0
9 1 -73 0
7 1 -55 0
6 1 -42 0
9 1 -25 0
4 1 -3 0
8 1 8 0
6 1 99 0
10 1 109 0
3 2 -59 0
5 2 -58 0
8 2 41 0
9 2 82 0
5 2 106 0
7 3 -86 0
9 3 -55 0
8 3 12 0
3 3 21 0
8 3 26 0
3 3 30 0
6 3 63 0
5 3 65 0
5 3 89 0
7 3 93 0
9 3 97 0
9 3 100 0
1 3 109 0
7 3 110 0
7 4 -117 0
6 4 -110 0
6 4 -96 0
8 4 -70 0
6 4 -66 0
2 4 -63 0
3 4 -55 0
4 4 -48 0
5 4 -41 0
1 4 -23 0
9 4 6 0
5 4 13 0
3 4 16 0
4 4 18 0
3 4 104 0
2 5 -117 0
8 5 -106 0
9 5 -75 0
1 5 -61 0
7 5 13 0
2 5 16 0
8 5 26 0
9 5 36 0
7 5 37 0
3 5 54 0
4 5 57 0
5 5 68 0
2 5 96 0
3 5 100 0
5 5 102 0
8 5 114 0
9 6 -103 0
1 6 -84 0
3 6 -67 0
7 6 -63 0
6 6 -50 0
4 6 -42 0
9 6 -31 0
9 6 -19 0
9 6 12 0
10 6 38 0
8 6 40 0
4 6 109 0
3 6 116 0
2 7 -107 0
5 7 -86 0
4 7 -71 0
9 7 -55 0
4 7 -44 0
5 7 -42 0
6 7 -29 0
5 7 32 0
3 7 51 0
5 7 93 0
2 8 -107 0
5 8 -54 0
8 8 -41 0
5 8 44 0
6 8 57 0
10 8 87 0
9 8 101 0
4 8 109 0
9 8 120 0
9 9 -107 0
6 9 -56 0
6 9 -41 0
5 9 -22 0
10 9 -13 0
5 9 42 0
4 9 46 0
8 9 75 0
5 9 81 0
2 9 95 0
2 9 110 0
7 10 -103 0
3 10 -83 0
6 10 -80 0
1 10 44 0
3 10 46 0
9 10 109 0
5 11 -115 0
8 11 -90 0
3 11 -69 0
7 11 -60 0
3 11 -56 0
4 11 -51 0
2 11 -47 0
9 11 -26 0
8 11 19 0
7 11 28 0
9 11 29 0
7 11 63 0
10 11 81 0
8 11 104 0
7 11 105 0
6 12 -101 0
4 12 -98 0
2 12 50 0
6 12 62 0
8 12 79 0
5 12 91 0
4 12 116 0
3 13 -108 0
6 13 -103 0
4 13 -44 0
9 13 -39 0
8 13 -28 0
9 13 53 0
9 13 67 0
1 13 74 0
8 13 87 0
4 13 102 0
8 13 110 0
10 14 -66 0
9 14 -34 0
10 14 -31 0
4 14 -18 0
1 14 -17 0
9 14 17 0
2 14 39 0
7 14 40 0
7 14 48 0
8 14 67 0
7 14 71 0
5 14 77 0
5 14 101 0
3 14 113 0
8 15 -16 0
6 15 59 0
8 15 92 0
5 16 -104 0
10 16 -92 0
1 16 -91 0
7 16 -86 0
6 16 -72 0
5 16 -55 0
6 16 -48 0
4 16 34 0
4 16 59 0
5 16 68 0
4 16 108 0
2 16 117 0
7 16 118 0
2 17 -90 0
2 17 -23 0
7 17 31 0
2 17 42 0
4 17 53 0
7 17 81 0
9 17 89 0
5 17 100 0
5 18 -119 0
7 18 -75 0
3 18 -48 0
2 18 -34 0
2 18 22 0
7 18 45 0
4 18 55 0
8 18 65 0
3 18 71 0
2 18 86 0
4 18 96 0
2 18 113 0
2 19 -100 0
10 19 -96 0
7 19 -71 0
6 19 -69 0
6 19 23 0
10 19 54 0
9 19 60 0
9 19 84 0
4 19 116 0
1 20 -111 0
6 20 -98 0
5 20 -80 0
2 20 -62 0
3 20 -56 0
5 20 -53 0
5 20 -33 0
9 20 35 0
4 20 44 0
9 20 97 0
4 20 100 0
1 20 112 0
3 20 114 0
5 21 -88 0
2 21 -84 0
9 21 27 0
8 21 28 0
9 21 41 0
1 21 54 0
9 21 75 0
3 21 94 0
3 21 95 0
1 21 99 0
3 21 119 0
9 22 -75 0
7 22 -47 0
7 22 -39 0
8 22 -34 0
6 22 36 0
6 22 46 0
2 22 52 0
6 22 78 0
3 22 86 0
6 22 89 0
7 23 -120 0
5 23 -92 0
1 23 -71 0
2 23 -67 0
4 23 -34 0
4 23 38 0
10 23 43 0
7 23 54 0
4 23 81 0
2 23 84 0
2 23 93 0
5 23 95 0
1 23 106 0
9 23 109 0
4 23 115 0
2 23 116 0
8 23 119 0
6 24 -117 0
3 24 -103 0
8 24 -81 0
8 24 -61 0
2 24 -54 0
5 24 -49 0
5 24 -44 0
10 24 -37 0
10 24 62 0
2 24 79 0
2 24 83 0
6 24 107 0
3 24 109 0
7 24 110 0
2 25 -86 0
7 25 32 0
7 25 35 0
3 25 41 0
2 25 44 0
1 25 62 0
3 26 -113 0
8 26 -110 0
5 26 -83 0
4 26 -61 0
9 26 -39 0
9 26 -29 0
4 26 54 0
9 26 66 0
3 26 83 0
5 27 69 0
7 27 92 0
9 27 95 0
7 27 103 0
5 27 120 0
7 28 -113 0
9 28 -96 0
9 28 -63 0
2 28 -37 0
8 28 51 0
8 28 65 0
2 28 86 0
9 28 92 0
4 28 104 0
5 29 -90 0
6 29 -87 0
5 29 49 0
2 29 55 0
2 29 117 0
7 30 -113 0
3 30 -100 0
2 30 -61 0
9 30 -58 0
1 30 -51 0
6 30 35 0
3 30 73 0
10 30 78 0
5 30 82 0
6 30 93 0
8 30 95 0
7 31 -92 0
1 31 -36 0
5 31 -33 0
6 31 62 0
8 32 -115 0
8 32 -110 0
2 32 -97 0
6 32 -40 0
7 32 41 0
3 32 77 0
4 32 95 0
5 32 105 0
4 32 107 0
3 33 -81 0
8 33 41 0
8 33 76 0
8 33 82 0
3 33 84 0
9 33 98 0
9 33 107 0
8 33 112 0
2 34 -106 0
2 34 -98 0
7 34 -97 0
2 34 -95 0
7 34 -80 0
9 34 -60 0
1 34 -59 0
1 34 50 0
5 34 71 0
9 34 108 0
7 34 118 0
5 35 -114 0
3 35 -101 0
3 35 -96 0
3 35 -94 0
2 35 -93 0
5 35 -57 0
8 35 77 0
8 35 100 0
7 36 -57 0
3 36 -51 0
3 36 51 0
1 36 74 0
5 36 102 0
9 36 111 0
8 37 -78 0
3 37 -72 0
2 37 -58 0
7 37 52 0
2 37 89 0
9 38 -100 0
8 38 -79 0
3 38 -68 0
6 38 43 0
9 38 104 0
9 39 -119 0
5 39 -78 0
9 39 -59 0
9 39 -51 0
9 39 42 0
8 39 84 0
6 39 85 0
4 39 100 0
10 40 -105 0
9 40 -60 0
6 40 69 0
2 40 70 0
3 40 103 0
4 41 -104 0
8 41 -101 0
9 41 -97 0
6 41 -85 0
10 41 -73 0
9 41 -64 0
1 41 -62 0
9 41 -50 0
7 41 85 0
3 41 92 0
1 41 97 0
4 41 102 0
4 41 106 0
10 42 -84 0
2 42 -67 0
6 42 55 0
6 43 -100 0
10 43 -90 0
5 43 -74 0
1 43 49 0
9 43 61 0
4 43 93 0
9 43 97 0
7 43 103 0
9 43 118 0
4 44 -95 0
7 44 -85 0
8 44 -64 0
9 44 -52 0
7 44 -46 0
10 44 -45 0
4 44 79 0
6 44 111 0
9 44 118 0
9 45 -103 0
5 45 -89 0
8 45 -70 0
9 45 -47 0
5 45 47 0
5 45 65 0
2 45 84 0
5 46 -118 0
8 46 -113 0
5 46 -112 0
4 46 -95 0
9 46 -68 0
1 46 48 0
9 46 50 0
9 46 98 0
5 46 99 0
9 47 -99 0
8 47 -91 0
8 47 -53 0
9 47 -52 0
4 47 -50 0
7 47 95 0
2 47 97 0
1 47 117 0
5 48 -85 0
1 48 -71 0
8 48 58 0
5 48 70 0
4 48 111 0
3 48 117 0
3 49 -120 0
3 49 -108 0
8 49 -106 0
1 49 -66 0
1 49 -54 0
2 49 50 0
5 49 55 0
2 49 90 0
6 49 110 0
3 49 117 0
6 50 -92 0
9 50 -76 0
1 50 58 0
6 50 65 0
9 50 81 0
9 50 100 0
2 50 102 0
8 51 -117 0
7 51 -76 0
8 51 -67 0
7 51 -66 0
10 51 100 0
5 51 111 0
8 52 67 0
1 52 119 0
9 53 -112 0
9 53 -101 0
8 53 78 0
4 53 91 0
2 53 98 0
1 54 -87 0
6 54 -71 0
4 54 76 0
8 54 77 0
6 54 79 0
4 54 111 0
9 55 -107 0
1 55 -64 0
5 55 -63 0
5 55 -61 0
3 55 57 0
1 55 60 0
4 55 81 0
3 55 103 0
7 56 -94 0
3 56 74 0
2 57 -115 0
7 57 -104 0
1 57 -97 0
7 57 84 0
6 58 -92 0
7 58 -75 0
7 58 -64 0
10 58 62 0
5 58 72 0
8 58 73 0
9 58 102 0
3 59 -103 0
6 59 -87 0
3 59 -66 0
5 59 102 0
6 59 113 0
8 60 -101 0
8 60 -64 0
4 60 105 0
4 61 -108 0
2 61 -73 0
3 61 -65 0
4 61 68 0
6 61 92 0
8 61 101 0
6 61 102 0
7 62 -118 0
2 62 -68 0
8 62 105 0
3 63 -102 0
4 63 -99 0
9 63 -94 0
9 63 -66 0
4 63 73 0
6 63 79 0
5 63 84 0
10 63 91 0
3 63 96 0
5 64 -106 0
5 64 -71 0
10 64 82 0
4 64 97 0
7 64 99 0
6 65 -91 0
6 65 102 0
2 65 120 0
2 66 -115 0
3 66 85 0
9 67 -113 0
5 67 -79 0
6 67 -78 0
1 67 87 0
7 67 119 0
10 68 -116 0
7 68 -104 0
5 68 -103 0
5 68 -84 0
3 68 69 0
6 68 74 0
3 68 80 0
5 68 87 0
9 68 88 0
2 68 113 0
5 68 116 0
4 69 -116 0
7 69 -105 0
8 69 -92 0
4 69 -90 0
9 69 77 0
3 69 117 0
7 70 -101 0
9 70 -95 0
6 70 110 0
5 70 116 0
4 71 -105 0
2 71 -96 0
6 71 -91 0
5 71 79 0
4 71 91 0
5 71 107 0
9 72 -109 0
10 72 -100 0
5 72 -83 0
6 72 118 0
9 73 -102 0
1 73 110 0
1 74 -117 0
4 74 -89 0
4 74 98 0
7 74 118 0
6 75 -119 0
8 75 -99 0
6 75 -82 0
7 75 96 0
2 76 -109 0
9 76 -83 0
3 76 92 0
10 76 98 0
2 76 107 0
2 76 112 0
3 77 -78 0
8 77 85 0
1 77 102 0
8 77 109 0
3 77 110 0
5 78 -91 0
9 78 -84 0
8 79 -107 0
9 79 -92 0
3 79 -83 0
3 79 91 0
8 79 94 0
2 79 101 0
7 80 -109 0
4 80 -96 0
1 80 -90 0
7 80 85 0
5 80 110 0
5 80 112 0
9 80 117 0
1 81 87 0
10 81 96 0
7 81 108 0
6 82 -88 0
7 82 -84 0
8 84 -115 0
5 84 95 0
9 84 100 0
8 85 -115 0
6 85 -113 0
2 85 -89 0
10 86 -96 0
5 86 -94 0
2 86 97 0
8 87 113 0
7 88 92 0
5 89 -99 0
6 89 -96 0
4 89 115 0
4 90 -113 0
8 90 -98 0
6 90 93 0
2 90 109 0
9 90 116 0
3 90 118 0
5 90 119 0
10 91 -113 0
8 91 -105 0
9 91 -95 0
4 91 118 0
8 92 109 0
10 93 -101 0
4 93 95 0
5 94 -111 0
6 95 -96 0
10 95 105 0
4 96 -108 0
10 96 99 0
9 96 112 0
2 97 -103 0
6 97 108 0
10 98 101 0
2 99 -112 0
9 99 111 0
1 100 104 0
8 100 110 0
6 100 115 0
6 101 -116 0
5 101 -111 0
9 101 -109 0
9 101 -106 0
3 103 -111 0
5 103 -108 0
10 103 117 0
2 105 112 0
7 105 113 0
5 106 -117 0
2 106 119 0
5 107 113 0
4 109 -114 0
5 111 -117 0
3 111 -113 0
4 111 118 0
8 113 -119 0
8 113 115 0
9 114 117 0
8 115 -120 0
1 115 120 0
